1	7	1	2	10	15	0	0	0	0	0	0
800	1	0	0	0	0	0	0	0	0	0	0
100	1	0	85.63	0.49	1	0	0	0	0	0	0
100	1	0	85.63	0.49	1	0	0	0	0	0	0
100	1	0	85.63	0.49	1	0	0	0	0	0	0
100	1	0	85.63	0.49	1	0	0	0	0	0	0
100     1       0       85.63   0.49    1       0       0       0       0       0       0
100	1	0	85.63	0.49	1	0	0	0	0	0	0
100     1       0       85.63   0.49    1       0       0       0       0       0       0
50	150	0	0	0	0	230	0	0	99999	0	0
50	75	0	0	0	0	230	0	0	99999	0	0
50	25	0	0	0	0	230	0	0	99999	0	0
50	75	0	0	0	0	230	0	0	0	0	0
50	25	0	0	0	0	230	0	0	0	0	0
28	62	0	0	0	0	230	0	0	0	0	0
20	61	0	0	0	0	230	0	0	0	0	0
15	42	0	0	0	0	230	0	0	0	0	0
11	18	0	0	0	0	230	0	0	0	0	0
0	25	0	0	0	0	230	0	0	0	0	0
25	4	0	0	0	0	230	0	0	0	0	0
35      35      0       0       0       0       230     0       0       0       0       0
64      37      0       0       0       0       230     0       0       0       0       0
5	5	16	16	0	229	239	10	0	0	0	0
20	65	12	4	8	171	181	10	0	0	0	0
6	38	16	3	13	241	251	10	0	0	0	0
35	17	7	3	4	116	318	10	0	0	0	0
20	50	5	2	3	204	214	10	0	0	0	0
21	24	28	25	3	217	227	10	0	0	0	0
49	11	18	4	14	116	308	10	0	0	0	0
13	52	36	9	27	263	273	10	0	0	0	0
5	30	2	0	2	203	213	10	0	0	0	0
41	49	10	8	2	152	162	10	0	0	0	0
37	56	5	3	2	165	175	10	0	0	0	0
15	19	1	1	0	203	213	10	0	0	0	0
27	43	9	6	3	227	237	10	0	0	0	0
25	24	20	19	1	256	266	10	0	0	0	0
56	37	6	4	2	224	234	10	0	0	0	0
